decision_x1=[0,7];
decision_x2=[0,7];
decision_x3=[0,7];
decision_x4=[0,7];
decision_x5=[0,7];
decision_x6=[0,7];
decision_x7=[0,7];
decision_x8=[0,7];
decision_x9=[0,7];
decision_x10=[0,7];
decision_x11=[0,7];
decision_x12=[0,7];
decision_x13=[0,7];
decision_x14=[0,7];
decision_x15=[0,7];
decision_x16=[0,7];
decision_x17=[0,7];
decision_x18=[0,7];
random_y1=[0,7];
random_y2=[0,7];
random_y3=[0,7];
random_y4=[0,7];
random_y5=[0,7];
random_y6=[0,7];
random_y7=[0,7];
random_y8=[0,7];
constraint_x2_x1=[
0,0,3.3|
0,1,6.6|
0,2,1.4|
0,3,9.1|
0,4,1.8|
0,5,3.5|
0,6,6.6|
0,7,1.4|
1,0,1.3|
1,1,4.7|
1,2,5.3|
1,3,3.4|
1,4,6.4|
1,5,2.8|
1,6,5.5|
1,7,5.5|
2,0,0.46|
2,1,7.8|
2,2,9.5|
2,3,1.4|
2,4,0.75|
2,5,9|
2,6,9.4|
2,7,5|
3,0,5.1|
3,1,1.6|
3,2,0.86|
3,3,9.6|
3,4,7.5|
3,5,8|
3,6,9.5|
3,7,9.7|
4,0,2.8|
4,1,5.6|
4,2,3.1|
4,3,8.6|
4,4,0.66|
4,5,3.1|
4,6,0.38|
4,7,8.4|
5,0,4.5|
5,1,6|
5,2,1.8|
5,3,8.4|
5,4,7.8|
5,5,9|
5,6,1.4|
5,7,5.3|
6,0,8.1|
6,1,6.7|
6,2,0.062|
6,3,8|
6,4,0.43|
6,5,5|
6,6,5.2|
6,7,3.5|
7,0,6.9|
7,1,4.6|
7,2,1.6|
7,3,2.1|
7,4,2.9|
7,5,7.7|
7,6,7.8|
7,7,1.6|
];
constraint_x3_x2=[
0,0,8.4|
0,1,5.8|
0,2,8.2|
0,3,6.3|
0,4,5.5|
0,5,7.8|
0,6,8.3|
0,7,4.8|
1,0,6.3|
1,1,2.2|
1,2,6.7|
1,3,7.9|
1,4,5.7|
1,5,8.6|
1,6,1.3|
1,7,7.6|
2,0,7.8|
2,1,5.5|
2,2,8|
2,3,8.6|
2,4,9.7|
2,5,2.1|
2,6,3.5|
2,7,8.8|
3,0,2.2|
3,1,4.7|
3,2,9.9|
3,3,7.4|
3,4,1.7|
3,5,1.8|
3,6,8.2|
3,7,7.5|
4,0,9.7|
4,1,8.5|
4,2,4.4|
4,3,7.7|
4,4,7.5|
4,5,4.9|
4,6,9.8|
4,7,1.9|
5,0,3.2|
5,1,8.7|
5,2,6|
5,3,5|
5,4,6.3|
5,5,9.3|
5,6,9.7|
5,7,3.2|
6,0,8.9|
6,1,5.9|
6,2,4|
6,3,2.2|
6,4,5.9|
6,5,7.6|
6,6,1.6|
6,7,3.6|
7,0,2.8|
7,1,4.9|
7,2,5.8|
7,3,5.8|
7,4,6.8|
7,5,7.8|
7,6,8.5|
7,7,9.4|
];
constraint_x4_x3=[
0,0,3.5|
0,1,9|
0,2,2.1|
0,3,2|
0,4,2.5|
0,5,9|
0,6,3.2|
0,7,9|
1,0,3.1|
1,1,3.4|
1,2,6.9|
1,3,2.3|
1,4,7.7|
1,5,9.3|
1,6,4.4|
1,7,6.7|
2,0,3.2|
2,1,0.03|
2,2,5.6|
2,3,8.4|
2,4,9.1|
2,5,3.1|
2,6,6.5|
2,7,5.5|
3,0,7.6|
3,1,7.5|
3,2,6.3|
3,3,2|
3,4,5.5|
3,5,9.6|
3,6,1.3|
3,7,5.6|
4,0,0.13|
4,1,8.1|
4,2,5|
4,3,8.5|
4,4,5.3|
4,5,8.6|
4,6,0.86|
4,7,9.9|
5,0,5.8|
5,1,1.5|
5,2,8.1|
5,3,5.2|
5,4,9.1|
5,5,6|
5,6,0.16|
5,7,8.3|
6,0,6.4|
6,1,0.64|
6,2,4.5|
6,3,0.77|
6,4,1.6|
6,5,2.6|
6,6,0.5|
6,7,2|
7,0,4.3|
7,1,5.5|
7,2,2.9|
7,3,3.4|
7,4,9.7|
7,5,7|
7,6,9.4|
7,7,8.4|
];
constraint_x5_x1=[
0,0,4.9|
0,1,8.3|
0,2,6.4|
0,3,4.4|
0,4,9.5|
0,5,9.8|
0,6,5.6|
0,7,4.8|
1,0,7.1|
1,1,1.7|
1,2,6.7|
1,3,9.5|
1,4,9.9|
1,5,0.93|
1,6,2.6|
1,7,9.4|
2,0,0.29|
2,1,7.3|
2,2,8.2|
2,3,3|
2,4,3.4|
2,5,4.9|
2,6,0.12|
2,7,4.7|
3,0,3.6|
3,1,7.3|
3,2,9.4|
3,3,4.5|
3,4,5.9|
3,5,8.6|
3,6,3.9|
3,7,3.4|
4,0,0.48|
4,1,0.35|
4,2,9|
4,3,2.3|
4,4,5.4|
4,5,9.7|
4,6,7.4|
4,7,2.6|
5,0,9.8|
5,1,3.2|
5,2,1.9|
5,3,10|
5,4,2.2|
5,5,7.9|
5,6,1.2|
5,7,2.3|
6,0,8.1|
6,1,8|
6,2,2.5|
6,3,9.6|
6,4,7.8|
6,5,0.78|
6,6,5.1|
6,7,2.1|
7,0,3|
7,1,7.9|
7,2,5.8|
7,3,7.4|
7,4,8.3|
7,5,5.8|
7,6,1.5|
7,7,7.4|
];
constraint_x6_x2=[
0,0,5.5|
0,1,7.3|
0,2,9.7|
0,3,5.6|
0,4,9|
0,5,5.3|
0,6,2.9|
0,7,9.6|
1,0,2.1|
1,1,0.66|
1,2,9.7|
1,3,2.6|
1,4,1.6|
1,5,0.67|
1,6,9.8|
1,7,3.7|
2,0,6.8|
2,1,1.6|
2,2,3.1|
2,3,5.1|
2,4,7.7|
2,5,0.76|
2,6,7.2|
2,7,9.2|
3,0,7.7|
3,1,2.5|
3,2,5.2|
3,3,6.2|
3,4,8.9|
3,5,1.8|
3,6,0.32|
3,7,5.8|
4,0,5.8|
4,1,9.2|
4,2,9.2|
4,3,2.6|
4,4,0.53|
4,5,0.016|
4,6,8.4|
4,7,9.9|
5,0,1.9|
5,1,7.7|
5,2,5.1|
5,3,3.3|
5,4,1.9|
5,5,2.1|
5,6,4.5|
5,7,7.7|
6,0,6.2|
6,1,0.19|
6,2,8.6|
6,3,6.4|
6,4,4.2|
6,5,3.6|
6,6,1.1|
6,7,0.66|
7,0,8.5|
7,1,3.4|
7,2,4.9|
7,3,0.95|
7,4,7.6|
7,5,5.2|
7,6,5.8|
7,7,2.4|
];
constraint_x6_x5=[
0,0,0.15|
0,1,2.4|
0,2,7.4|
0,3,7|
0,4,1.8|
0,5,3.9|
0,6,0.23|
0,7,6.6|
1,0,9.5|
1,1,3|
1,2,5.6|
1,3,3.2|
1,4,6.1|
1,5,6.3|
1,6,3.2|
1,7,4.7|
2,0,9.4|
2,1,7|
2,2,7.7|
2,3,8.6|
2,4,6.5|
2,5,0.4|
2,6,7.8|
2,7,3.4|
3,0,1.7|
3,1,8|
3,2,3.6|
3,3,0.98|
3,4,3.4|
3,5,6.9|
3,6,4.1|
3,7,4.4|
4,0,2.3|
4,1,8.7|
4,2,3.1|
4,3,5.6|
4,4,5.3|
4,5,5.3|
4,6,4.2|
4,7,2.7|
5,0,0.8|
5,1,2.2|
5,2,7.6|
5,3,8.9|
5,4,4.6|
5,5,7.7|
5,6,0.57|
5,7,0.68|
6,0,6.2|
6,1,1.5|
6,2,2.8|
6,3,5.3|
6,4,1.9|
6,5,1|
6,6,6.2|
6,7,5|
7,0,9|
7,1,4.3|
7,2,3.9|
7,3,2.2|
7,4,5.2|
7,5,8.8|
7,6,4.4|
7,7,0.82|
];
constraint_x7_x3=[
0,0,7|
0,1,1.1|
0,2,4.9|
0,3,6.2|
0,4,4.7|
0,5,8.3|
0,6,1.4|
0,7,4.5|
1,0,3.2|
1,1,8.7|
1,2,1.9|
1,3,1.6|
1,4,1.1|
1,5,8.1|
1,6,5.9|
1,7,0.56|
2,0,9.7|
2,1,7.7|
2,2,0.2|
2,3,8.4|
2,4,0.48|
2,5,0.97|
2,6,3.5|
2,7,9.9|
3,0,9.3|
3,1,2.6|
3,2,1.6|
3,3,9.4|
3,4,0.84|
3,5,4.5|
3,6,9.2|
3,7,5.6|
4,0,0.031|
4,1,4.4|
4,2,7.3|
4,3,4.7|
4,4,9.4|
4,5,9.2|
4,6,1.4|
4,7,3.6|
5,0,1.7|
5,1,5.4|
5,2,3.3|
5,3,2.3|
5,4,9.2|
5,5,2.8|
5,6,3.3|
5,7,5.9|
6,0,9.4|
6,1,3.1|
6,2,1.9|
6,3,3.8|
6,4,7.6|
6,5,4.7|
6,6,9.2|
6,7,6.3|
7,0,1.6|
7,1,9.9|
7,2,10|
7,3,3.5|
7,4,3.6|
7,5,7|
7,6,2.9|
7,7,4.5|
];
constraint_x7_x6=[
0,0,2.4|
0,1,3.8|
0,2,1.9|
0,3,3.8|
0,4,8.3|
0,5,1.8|
0,6,5.2|
0,7,7.1|
1,0,0.61|
1,1,6.9|
1,2,3.4|
1,3,0.76|
1,4,7.8|
1,5,5.1|
1,6,2.5|
1,7,5.4|
2,0,1.6|
2,1,2.7|
2,2,3|
2,3,0.74|
2,4,2.6|
2,5,3|
2,6,2.6|
2,7,7.3|
3,0,4.8|
3,1,6.8|
3,2,5.9|
3,3,4.4|
3,4,8.3|
3,5,9.8|
3,6,3.9|
3,7,1.1|
4,0,3.6|
4,1,6.7|
4,2,0.8|
4,3,6.3|
4,4,5|
4,5,5|
4,6,2.8|
4,7,6|
5,0,0.6|
5,1,0.11|
5,2,2.3|
5,3,2.7|
5,4,0.8|
5,5,7.6|
5,6,3.8|
5,7,6.4|
6,0,4.9|
6,1,8|
6,2,9.5|
6,3,9.7|
6,4,9.9|
6,5,2.2|
6,6,8|
6,7,6.3|
7,0,2|
7,1,6|
7,2,1.2|
7,3,2.9|
7,4,6.7|
7,5,1.6|
7,6,1.3|
7,7,2.8|
];
constraint_x8_x4=[
0,0,5.2|
0,1,8.2|
0,2,5.1|
0,3,0.53|
0,4,8.2|
0,5,7.7|
0,6,0.9|
0,7,5.8|
1,0,0.38|
1,1,6|
1,2,3.5|
1,3,3.9|
1,4,5.4|
1,5,0.55|
1,6,9.6|
1,7,5|
2,0,4.6|
2,1,9.3|
2,2,5.5|
2,3,2.9|
2,4,3.3|
2,5,2.6|
2,6,8.2|
2,7,8|
3,0,0.81|
3,1,9.8|
3,2,1.6|
3,3,1.4|
3,4,1.3|
3,5,6|
3,6,1.3|
3,7,5.2|
4,0,8.2|
4,1,5.1|
4,2,2.5|
4,3,6.7|
4,4,1.5|
4,5,6.1|
4,6,4.9|
4,7,0.75|
5,0,0.037|
5,1,8.4|
5,2,0.88|
5,3,2.4|
5,4,6.2|
5,5,7.3|
5,6,7.4|
5,7,6.6|
6,0,2.1|
6,1,3.8|
6,2,2|
6,3,5.5|
6,4,2.2|
6,5,4.4|
6,6,9.9|
6,7,5.4|
7,0,5.2|
7,1,6.8|
7,2,4.8|
7,3,6.8|
7,4,6.1|
7,5,7.6|
7,6,6.8|
7,7,4.7|
];
constraint_x8_x7=[
0,0,1.3|
0,1,4.3|
0,2,8.6|
0,3,5.3|
0,4,6.9|
0,5,1.2|
0,6,9.9|
0,7,4.1|
1,0,1.5|
1,1,3.3|
1,2,0.52|
1,3,0.036|
1,4,7.2|
1,5,6.8|
1,6,9.7|
1,7,3.7|
2,0,0.15|
2,1,9|
2,2,3|
2,3,4.7|
2,4,5.5|
2,5,7.3|
2,6,2|
2,7,9.8|
3,0,3.9|
3,1,1.8|
3,2,6.8|
3,3,8.6|
3,4,5|
3,5,6.3|
3,6,4.8|
3,7,6.2|
4,0,7.9|
4,1,5.3|
4,2,7.3|
4,3,9.7|
4,4,2.5|
4,5,5.2|
4,6,3.5|
4,7,1.8|
5,0,6.9|
5,1,0.78|
5,2,7.5|
5,3,3.8|
5,4,4.1|
5,5,6.4|
5,6,7.7|
5,7,6.8|
6,0,9.3|
6,1,8.6|
6,2,3.5|
6,3,5.1|
6,4,3.9|
6,5,2.1|
6,6,1.1|
6,7,0.93|
7,0,8.7|
7,1,5.7|
7,2,8|
7,3,3.8|
7,4,6.5|
7,5,9.7|
7,6,8.5|
7,7,8.3|
];
constraint_x9_x5=[
0,0,0.32|
0,1,6.1|
0,2,4|
0,3,7.4|
0,4,0.81|
0,5,0.93|
0,6,3.3|
0,7,3|
1,0,1.1|
1,1,0.088|
1,2,7.4|
1,3,8.5|
1,4,7|
1,5,3.3|
1,6,0.77|
1,7,3.4|
2,0,6.9|
2,1,4.2|
2,2,10|
2,3,0.093|
2,4,7.7|
2,5,4.9|
2,6,4.4|
2,7,6.3|
3,0,7.2|
3,1,3.8|
3,2,8.1|
3,3,7.5|
3,4,5.7|
3,5,0.1|
3,6,2.4|
3,7,2.9|
4,0,7.3|
4,1,8.4|
4,2,6.2|
4,3,2.6|
4,4,6.5|
4,5,5.4|
4,6,6.2|
4,7,1.9|
5,0,5.4|
5,1,6.9|
5,2,10|
5,3,5.4|
5,4,7.1|
5,5,6.1|
5,6,3.7|
5,7,1|
6,0,9.9|
6,1,0.45|
6,2,7.2|
6,3,7.6|
6,4,3.3|
6,5,9|
6,6,4.1|
6,7,4|
7,0,6.9|
7,1,4.3|
7,2,8.6|
7,3,3.9|
7,4,4.9|
7,5,8.1|
7,6,9.5|
7,7,3|
];
constraint_x10_x6=[
0,0,8.8|
0,1,1.1|
0,2,4|
0,3,8|
0,4,3.4|
0,5,7.5|
0,6,9.2|
0,7,6.5|
1,0,9.3|
1,1,9|
1,2,0.073|
1,3,4.6|
1,4,7.9|
1,5,7.3|
1,6,5.1|
1,7,5.6|
2,0,4.6|
2,1,5.3|
2,2,3.9|
2,3,8.6|
2,4,7.5|
2,5,5.9|
2,6,4.2|
2,7,9.8|
3,0,9.8|
3,1,0.84|
3,2,1.6|
3,3,7|
3,4,8.4|
3,5,4.2|
3,6,8.6|
3,7,8.3|
4,0,6.9|
4,1,8.5|
4,2,6.5|
4,3,7.2|
4,4,8.3|
4,5,3|
4,6,3.9|
4,7,1.4|
5,0,5|
5,1,6.3|
5,2,3.4|
5,3,8.7|
5,4,9.6|
5,5,5.9|
5,6,9.1|
5,7,0.75|
6,0,8|
6,1,4.1|
6,2,8.9|
6,3,6.7|
6,4,6|
6,5,6.8|
6,6,0.65|
6,7,0.42|
7,0,7.4|
7,1,9.1|
7,2,5.5|
7,3,6.5|
7,4,8.4|
7,5,4.5|
7,6,3.2|
7,7,0.85|
];
constraint_x11_x7=[
0,0,3.8|
0,1,5|
0,2,4.6|
0,3,6.9|
0,4,5.5|
0,5,2.2|
0,6,6.1|
0,7,0.43|
1,0,5.2|
1,1,7.9|
1,2,7.8|
1,3,6.9|
1,4,7.9|
1,5,1.6|
1,6,3.6|
1,7,4.1|
2,0,1.7|
2,1,6.5|
2,2,0.96|
2,3,4.6|
2,4,6.7|
2,5,5.4|
2,6,5.5|
2,7,2.8|
3,0,4.9|
3,1,0.085|
3,2,3.5|
3,3,6.3|
3,4,6.1|
3,5,8.5|
3,6,6.8|
3,7,0.25|
4,0,0.26|
4,1,1.7|
4,2,3.1|
4,3,6.9|
4,4,0.33|
4,5,1.3|
4,6,2.6|
4,7,8.5|
5,0,9|
5,1,5.7|
5,2,5.4|
5,3,1.3|
5,4,9.4|
5,5,2.5|
5,6,4.1|
5,7,0.89|
6,0,1.6|
6,1,5.7|
6,2,4.1|
6,3,0.053|
6,4,7.4|
6,5,7.4|
6,6,9.3|
6,7,9.5|
7,0,3.4|
7,1,6.7|
7,2,3.5|
7,3,4.5|
7,4,5.7|
7,5,5.9|
7,6,4.1|
7,7,1.7|
];
constraint_x12_x8=[
0,0,5.3|
0,1,2|
0,2,8.9|
0,3,7.6|
0,4,5.1|
0,5,4.5|
0,6,6.9|
0,7,3.4|
1,0,7.4|
1,1,9|
1,2,9.4|
1,3,2.4|
1,4,1|
1,5,7.8|
1,6,8.8|
1,7,1.8|
2,0,7.3|
2,1,7.8|
2,2,4.9|
2,3,8.1|
2,4,4.5|
2,5,8.9|
2,6,1.1|
2,7,3.1|
3,0,0.44|
3,1,3.9|
3,2,2.6|
3,3,4.6|
3,4,9.7|
3,5,5.4|
3,6,8.4|
3,7,3|
4,0,0.048|
4,1,9.5|
4,2,7.9|
4,3,5.3|
4,4,7.2|
4,5,6.7|
4,6,2.4|
4,7,8.7|
5,0,6|
5,1,7.4|
5,2,2.8|
5,3,2.5|
5,4,2.8|
5,5,8.8|
5,6,6.7|
5,7,8|
6,0,1.1|
6,1,4.6|
6,2,9.1|
6,3,8.6|
6,4,5.6|
6,5,9|
6,6,9|
6,7,0.42|
7,0,5.5|
7,1,1.2|
7,2,1.8|
7,3,7.6|
7,4,7.2|
7,5,9.2|
7,6,8.3|
7,7,0.51|
];
constraint_x13_x9=[
0,0,3.7|
0,1,4.7|
0,2,1.9|
0,3,0.65|
0,4,5.7|
0,5,5.9|
0,6,2.1|
0,7,9.5|
1,0,2.3|
1,1,6.2|
1,2,8|
1,3,5.6|
1,4,5.4|
1,5,2.6|
1,6,3.1|
1,7,5.9|
2,0,2.6|
2,1,4.6|
2,2,4.2|
2,3,7.2|
2,4,0.24|
2,5,3.5|
2,6,6.1|
2,7,8.4|
3,0,6.4|
3,1,0.65|
3,2,3.8|
3,3,9.5|
3,4,2.8|
3,5,10|
3,6,2.1|
3,7,8.1|
4,0,4.2|
4,1,9.9|
4,2,1.6|
4,3,2.5|
4,4,6.9|
4,5,4.7|
4,6,0.22|
4,7,9|
5,0,0.94|
5,1,3|
5,2,2.4|
5,3,4.3|
5,4,5.9|
5,5,6.7|
5,6,5.8|
5,7,3.5|
6,0,2.8|
6,1,4.6|
6,2,4|
6,3,7.8|
6,4,9.2|
6,5,9.6|
6,6,6|
6,7,3.9|
7,0,3.4|
7,1,8.5|
7,2,0.018|
7,3,5.9|
7,4,8.1|
7,5,3.3|
7,6,6.9|
7,7,6.4|
];
constraint_x14_x10=[
0,0,0.74|
0,1,8.1|
0,2,7.3|
0,3,0.86|
0,4,5.8|
0,5,3.3|
0,6,9.5|
0,7,6.5|
1,0,0.74|
1,1,0.024|
1,2,1.2|
1,3,3.7|
1,4,3.2|
1,5,8.3|
1,6,1.4|
1,7,6.2|
2,0,9.2|
2,1,7|
2,2,10|
2,3,9.3|
2,4,1.9|
2,5,0.12|
2,6,4.9|
2,7,8.9|
3,0,4.5|
3,1,6.7|
3,2,4.5|
3,3,7|
3,4,7.7|
3,5,8.4|
3,6,4.3|
3,7,2.7|
4,0,8.9|
4,1,8|
4,2,3.5|
4,3,4|
4,4,7|
4,5,6.3|
4,6,9.6|
4,7,5.7|
5,0,1.6|
5,1,7|
5,2,6.6|
5,3,0.85|
5,4,8.7|
5,5,2.8|
5,6,3.3|
5,7,2.1|
6,0,8.2|
6,1,5.3|
6,2,9.9|
6,3,7.1|
6,4,5.1|
6,5,1.9|
6,6,2.1|
6,7,1.4|
7,0,7.2|
7,1,2.4|
7,2,0.049|
7,3,9.1|
7,4,4.6|
7,5,3.4|
7,6,4.5|
7,7,3.7|
];
constraint_x15_x11=[
0,0,2.8|
0,1,5.5|
0,2,7.9|
0,3,2.5|
0,4,6.2|
0,5,3.6|
0,6,0.14|
0,7,1.7|
1,0,1.5|
1,1,8.5|
1,2,5.4|
1,3,2|
1,4,5|
1,5,9.5|
1,6,6.7|
1,7,5.9|
2,0,4|
2,1,0.64|
2,2,5.2|
2,3,4.3|
2,4,7.3|
2,5,3.2|
2,6,3.5|
2,7,2.5|
3,0,7.6|
3,1,1.6|
3,2,7.6|
3,3,7.8|
3,4,8.8|
3,5,7.7|
3,6,2.7|
3,7,8.2|
4,0,3.2|
4,1,7.6|
4,2,9.1|
4,3,8.5|
4,4,5.8|
4,5,6.6|
4,6,2.6|
4,7,9.7|
5,0,4.1|
5,1,5.2|
5,2,1.6|
5,3,7.7|
5,4,4.9|
5,5,2.2|
5,6,8.9|
5,7,7|
6,0,4.1|
6,1,8.1|
6,2,9.5|
6,3,7.8|
6,4,7.1|
6,5,8.9|
6,6,10|
6,7,9.8|
7,0,8.7|
7,1,1.9|
7,2,9.9|
7,3,6|
7,4,9.6|
7,5,2.6|
7,6,3.3|
7,7,1.4|
];
constraint_x16_x12=[
0,0,3.4|
0,1,3.7|
0,2,0.64|
0,3,0.98|
0,4,3.5|
0,5,1.3|
0,6,6.3|
0,7,5.3|
1,0,2|
1,1,7.8|
1,2,7.8|
1,3,3.8|
1,4,4.6|
1,5,1.3|
1,6,2.9|
1,7,3|
2,0,2.2|
2,1,2.1|
2,2,7.2|
2,3,9.7|
2,4,2.6|
2,5,4|
2,6,9.9|
2,7,4.6|
3,0,0.32|
3,1,4.7|
3,2,2.9|
3,3,8|
3,4,0.053|
3,5,0.032|
3,6,9.2|
3,7,8.2|
4,0,7.5|
4,1,8.8|
4,2,6.2|
4,3,3.8|
4,4,8.4|
4,5,7.9|
4,6,6.3|
4,7,6.4|
5,0,7.1|
5,1,5.9|
5,2,7.7|
5,3,2.4|
5,4,7.3|
5,5,3.3|
5,6,4.2|
5,7,3.5|
6,0,6.2|
6,1,7.2|
6,2,8.7|
6,3,1.5|
6,4,5.6|
6,5,4.4|
6,6,3.8|
6,7,7.1|
7,0,6.7|
7,1,1.2|
7,2,9.9|
7,3,8.9|
7,4,5.8|
7,5,5.9|
7,6,4.8|
7,7,6.2|
];
constraint_x17_x13=[
0,0,0.88|
0,1,3|
0,2,1.7|
0,3,0.41|
0,4,4.2|
0,5,2.8|
0,6,1.2|
0,7,2.3|
1,0,0.013|
1,1,1.6|
1,2,6|
1,3,3.6|
1,4,6.4|
1,5,3.1|
1,6,5.8|
1,7,2.7|
2,0,9.2|
2,1,3.7|
2,2,6.3|
2,3,5.1|
2,4,8.9|
2,5,0.87|
2,6,4.3|
2,7,4.8|
3,0,7.8|
3,1,8.7|
3,2,9|
3,3,9.3|
3,4,7.8|
3,5,7.7|
3,6,5.4|
3,7,5.1|
4,0,9.7|
4,1,9.8|
4,2,3.7|
4,3,1|
4,4,8.1|
4,5,2.4|
4,6,5.7|
4,7,5.2|
5,0,7.3|
5,1,9.7|
5,2,8.2|
5,3,3.5|
5,4,4.1|
5,5,8|
5,6,4|
5,7,6.5|
6,0,9.2|
6,1,3.3|
6,2,2.8|
6,3,5.1|
6,4,5|
6,5,5|
6,6,4.4|
6,7,4.1|
7,0,0.4|
7,1,2.7|
7,2,1.3|
7,3,9.7|
7,4,6.7|
7,5,6.9|
7,6,3.5|
7,7,6.5|
];
constraint_x18_x14=[
0,0,4.9|
0,1,1.4|
0,2,5.3|
0,3,9.4|
0,4,1.4|
0,5,4|
0,6,6.6|
0,7,6.1|
1,0,2.3|
1,1,7|
1,2,9.8|
1,3,4.7|
1,4,3.5|
1,5,4|
1,6,4.9|
1,7,3.6|
2,0,1.8|
2,1,0.43|
2,2,4.6|
2,3,5.6|
2,4,7.1|
2,5,0.0039|
2,6,3.9|
2,7,0.22|
3,0,0.93|
3,1,2.9|
3,2,3.9|
3,3,9.4|
3,4,4.9|
3,5,5|
3,6,6.9|
3,7,5|
4,0,1.3|
4,1,7.4|
4,2,4.6|
4,3,3|
4,4,4.6|
4,5,8.2|
4,6,4.5|
4,7,2.2|
5,0,0.73|
5,1,1.3|
5,2,4.6|
5,3,7.8|
5,4,9.3|
5,5,1.1|
5,6,8.2|
5,7,7.6|
6,0,2.2|
6,1,6|
6,2,6.1|
6,3,8|
6,4,8|
6,5,2.9|
6,6,4.6|
6,7,8.2|
7,0,3.4|
7,1,9|
7,2,9.1|
7,3,9.2|
7,4,6.1|
7,5,0.23|
7,6,4.8|
7,7,8.7|
];
constraint_x1_y1=[
0,0,0.66|
0,1,1.5|
0,2,9.5|
0,3,4.2|
0,4,3.5|
0,5,9.1|
0,6,5.6|
0,7,2.2|
1,0,6.5|
1,1,5.3|
1,2,1.6|
1,3,6.1|
1,4,5.9|
1,5,2.5|
1,6,6.4|
1,7,4.2|
2,0,6.4|
2,1,7.4|
2,2,4.8|
2,3,3.1|
2,4,7.2|
2,5,1.4|
2,6,3.9|
2,7,4.5|
3,0,0.83|
3,1,5.9|
3,2,3|
3,3,0.2|
3,4,9.2|
3,5,5.6|
3,6,4.2|
3,7,9.3|
4,0,9.8|
4,1,8.4|
4,2,0.19|
4,3,3.5|
4,4,5.5|
4,5,0.91|
4,6,3.6|
4,7,0.042|
5,0,2.3|
5,1,7.2|
5,2,9.2|
5,3,3.2|
5,4,5.4|
5,5,6.3|
5,6,3.7|
5,7,3.9|
6,0,2.8|
6,1,0.69|
6,2,7.2|
6,3,5.2|
6,4,1.3|
6,5,7.2|
6,6,4.2|
6,7,1.8|
7,0,9.6|
7,1,6.3|
7,2,5.8|
7,3,9.9|
7,4,5|
7,5,8.4|
7,6,4.1|
7,7,6.8|
];
constraint_x2_y2=[
0,0,1|
0,1,0.23|
0,2,3.9|
0,3,3.4|
0,4,2.3|
0,5,8.3|
0,6,4.8|
0,7,9.1|
1,0,10|
1,1,7.7|
1,2,1.8|
1,3,0.83|
1,4,1.9|
1,5,5.7|
1,6,5.7|
1,7,6.6|
2,0,0.63|
2,1,1.4|
2,2,4.7|
2,3,10|
2,4,2.5|
2,5,8.9|
2,6,4.9|
2,7,8.3|
3,0,6|
3,1,0.56|
3,2,8.6|
3,3,2.4|
3,4,8.9|
3,5,0.011|
3,6,0.69|
3,7,7.5|
4,0,6.5|
4,1,4.1|
4,2,9.4|
4,3,2.4|
4,4,5.2|
4,5,6.2|
4,6,6.1|
4,7,7|
5,0,0.021|
5,1,6.2|
5,2,1.3|
5,3,7.2|
5,4,7.7|
5,5,1.4|
5,6,2.6|
5,7,2.1|
6,0,2.5|
6,1,6.6|
6,2,9.3|
6,3,2.4|
6,4,4.9|
6,5,1.6|
6,6,9.1|
6,7,8.7|
7,0,2.4|
7,1,7.7|
7,2,8.4|
7,3,7.8|
7,4,1.2|
7,5,3.2|
7,6,5.4|
7,7,1.9|
];
constraint_x3_y3=[
0,0,4.5|
0,1,9.6|
0,2,6.7|
0,3,0.9|
0,4,5.5|
0,5,2.8|
0,6,4.2|
0,7,6.6|
1,0,4.5|
1,1,3.4|
1,2,2.6|
1,3,2.3|
1,4,3.5|
1,5,3.9|
1,6,10|
1,7,8.8|
2,0,2|
2,1,1.5|
2,2,1.6|
2,3,1.2|
2,4,8.5|
2,5,1|
2,6,2.8|
2,7,1|
3,0,6.9|
3,1,3.2|
3,2,4.8|
3,3,3.7|
3,4,9.2|
3,5,6.3|
3,6,4|
3,7,3.7|
4,0,8.4|
4,1,3.7|
4,2,5.2|
4,3,0.44|
4,4,0.77|
4,5,10|
4,6,7.6|
4,7,6.2|
5,0,5.6|
5,1,8.2|
5,2,5.7|
5,3,6.5|
5,4,8|
5,5,7.9|
5,6,7.5|
5,7,1.9|
6,0,3.5|
6,1,3.5|
6,2,9.6|
6,3,0.26|
6,4,0.67|
6,5,9.9|
6,6,4.1|
6,7,2|
7,0,4.4|
7,1,2.1|
7,2,4.4|
7,3,5.8|
7,4,7.7|
7,5,4.7|
7,6,0.53|
7,7,0.6|
];
constraint_x4_y4=[
0,0,7.6|
0,1,4.5|
0,2,8.3|
0,3,8.4|
0,4,2.4|
0,5,5.4|
0,6,8.1|
0,7,2.3|
1,0,1.6|
1,1,2.7|
1,2,5|
1,3,6.2|
1,4,7|
1,5,8.5|
1,6,1.7|
1,7,4.9|
2,0,9.6|
2,1,8.3|
2,2,9.3|
2,3,9.3|
2,4,1.7|
2,5,9.1|
2,6,1.7|
2,7,7.9|
3,0,8.4|
3,1,1.1|
3,2,9|
3,3,1.7|
3,4,3.3|
3,5,8.4|
3,6,2.5|
3,7,2.2|
4,0,2|
4,1,9.7|
4,2,9.1|
4,3,8.7|
4,4,0.7|
4,5,5|
4,6,7.2|
4,7,0.79|
5,0,9.5|
5,1,8.9|
5,2,5.5|
5,3,6.6|
5,4,1.6|
5,5,5.5|
5,6,7.3|
5,7,2.1|
6,0,0.84|
6,1,1.5|
6,2,6.9|
6,3,0.49|
6,4,4.1|
6,5,4.2|
6,6,5.1|
6,7,1.6|
7,0,0.44|
7,1,2|
7,2,1.4|
7,3,0.54|
7,4,3.4|
7,5,8.9|
7,6,9.7|
7,7,0.88|
];
constraint_x5_y5=[
0,0,5.9|
0,1,0.49|
0,2,9.3|
0,3,1.2|
0,4,9.4|
0,5,7.8|
0,6,4.3|
0,7,1.3|
1,0,7.5|
1,1,0.3|
1,2,8.8|
1,3,4.6|
1,4,6.5|
1,5,8.9|
1,6,0.54|
1,7,3.2|
2,0,0.88|
2,1,2.5|
2,2,8.8|
2,3,4.4|
2,4,3.4|
2,5,0.31|
2,6,0.69|
2,7,0.67|
3,0,5.9|
3,1,9.2|
3,2,6.4|
3,3,4|
3,4,4.9|
3,5,6.6|
3,6,3.3|
3,7,8.4|
4,0,9.4|
4,1,6.5|
4,2,8.2|
4,3,6.5|
4,4,7.9|
4,5,4.4|
4,6,4.1|
4,7,0.8|
5,0,2.2|
5,1,8.6|
5,2,1.4|
5,3,4.1|
5,4,1.4|
5,5,1.5|
5,6,1.6|
5,7,0.47|
6,0,5.7|
6,1,5.7|
6,2,1.6|
6,3,8|
6,4,9.3|
6,5,4.2|
6,6,4.5|
6,7,4.7|
7,0,3.3|
7,1,4.6|
7,2,2.8|
7,3,3.6|
7,4,7.6|
7,5,3.7|
7,6,0.48|
7,7,6.6|
];
constraint_x6_y6=[
0,0,5.8|
0,1,1.1|
0,2,1.7|
0,3,1.5|
0,4,2.1|
0,5,9.9|
0,6,1.9|
0,7,0.66|
1,0,5.4|
1,1,3.7|
1,2,8.3|
1,3,9|
1,4,8.8|
1,5,8.5|
1,6,5.8|
1,7,5.8|
2,0,5.1|
2,1,0.78|
2,2,6.7|
2,3,4.1|
2,4,0.59|
2,5,9.6|
2,6,1|
2,7,5.5|
3,0,2.7|
3,1,7.9|
3,2,4.6|
3,3,3.7|
3,4,0.97|
3,5,8.6|
3,6,8.8|
3,7,8.3|
4,0,8.8|
4,1,5.7|
4,2,1.1|
4,3,1.4|
4,4,9.7|
4,5,5.6|
4,6,0.39|
4,7,7.1|
5,0,5.4|
5,1,3.6|
5,2,2.1|
5,3,4.9|
5,4,4.2|
5,5,6|
5,6,0.18|
5,7,5.9|
6,0,4.1|
6,1,8.5|
6,2,4.7|
6,3,1.7|
6,4,3.5|
6,5,0.18|
6,6,9|
6,7,4.5|
7,0,4.9|
7,1,9.1|
7,2,0.72|
7,3,2.4|
7,4,5.7|
7,5,9.2|
7,6,9.4|
7,7,0.6|
];
constraint_x7_y7=[
0,0,5.6|
0,1,4.4|
0,2,3.6|
0,3,5.9|
0,4,3.1|
0,5,2.8|
0,6,8.5|
0,7,8.3|
1,0,2.9|
1,1,1.8|
1,2,9.3|
1,3,4.9|
1,4,3.3|
1,5,3.1|
1,6,2.4|
1,7,2.7|
2,0,7.9|
2,1,7.3|
2,2,7.9|
2,3,3.8|
2,4,9.5|
2,5,2.1|
2,6,5.2|
2,7,8.9|
3,0,6|
3,1,7.5|
3,2,3.8|
3,3,3.5|
3,4,0.63|
3,5,5.3|
3,6,0.91|
3,7,4.8|
4,0,2.1|
4,1,4.9|
4,2,1.5|
4,3,7.6|
4,4,7.5|
4,5,3.9|
4,6,0.67|
4,7,9.3|
5,0,4.6|
5,1,4.2|
5,2,3.1|
5,3,1.1|
5,4,3.6|
5,5,7.2|
5,6,4.8|
5,7,2.7|
6,0,5.2|
6,1,9.4|
6,2,0.88|
6,3,0.21|
6,4,3|
6,5,9.9|
6,6,7.4|
6,7,1.2|
7,0,6.2|
7,1,4|
7,2,5.8|
7,3,7.9|
7,4,6.3|
7,5,6.4|
7,6,2.1|
7,7,8.7|
];
constraint_x8_y8=[
0,0,2.2|
0,1,5.5|
0,2,7.5|
0,3,4.2|
0,4,8.4|
0,5,5.2|
0,6,6.8|
0,7,0.43|
1,0,5.3|
1,1,3|
1,2,5.3|
1,3,0.58|
1,4,0.78|
1,5,2.1|
1,6,2.2|
1,7,5.9|
2,0,8.4|
2,1,9.4|
2,2,3.1|
2,3,4.2|
2,4,5.7|
2,5,2.5|
2,6,5.4|
2,7,9.1|
3,0,1.2|
3,1,6.1|
3,2,7.8|
3,3,4.2|
3,4,8.1|
3,5,7.2|
3,6,2.7|
3,7,0.74|
4,0,7.5|
4,1,5.2|
4,2,6|
4,3,7.4|
4,4,9.1|
4,5,5.9|
4,6,8.5|
4,7,5.2|
5,0,3.2|
5,1,8.6|
5,2,0.48|
5,3,4.8|
5,4,0.84|
5,5,3.5|
5,6,6|
5,7,8.4|
6,0,7.4|
6,1,5.7|
6,2,4.8|
6,3,5|
6,4,1.8|
6,5,9|
6,6,8.3|
6,7,4.1|
7,0,3.4|
7,1,9.1|
7,2,8.1|
7,3,3.1|
7,4,4|
7,5,10|
7,6,6.6|
7,7,7.9|
];
initial_distribution_y1=[0.08,0.13,0.061,0.17,0.05,0.16,0.15,0.2];
initial_distribution_y2=[0.17,0.058,0.065,0.13,0.12,0.18,0.15,0.13];
initial_distribution_y3=[0.15,0.17,0.044,0.027,0.044,0.037,0.23,0.3];
initial_distribution_y4=[0.13,0.095,0.16,0.011,0.061,0.17,0.2,0.17];
initial_distribution_y5=[0.047,0.11,0.18,0.18,0.058,0.061,0.28,0.08];
initial_distribution_y6=[0.15,0.19,0.051,0.057,0.12,0.23,0.071,0.13];
initial_distribution_y7=[0.19,0.077,0.2,0.05,0.19,0.074,0.13,0.084];
initial_distribution_y8=[0.098,0.2,0.033,0.25,0.054,0.046,0.25,0.069];
transition_y1=[
0.011,0.092,0.079,0.17,0.19,0.072,0.23,0.15|
0.18,0.1,0.16,0.079,0.17,0.089,0.16,0.065|
0.098,0.1,0.036,0.19,0.041,0.26,0.017,0.25|
0.016,0.14,0.018,0.34,0.16,0.054,0.25,0.026|
0.018,0.22,0.044,0.19,0.071,0.21,0.01,0.24|
0.25,0.015,0.25,0.11,0.14,0.17,0.045,0.028|
0.044,0.19,0.091,0.079,0.22,0.12,0.14,0.12|
0.064,0.0041,0.22,0.26,0.039,0.032,0.098,0.28|
];
transition_y2=[
0.044,0.17,0.25,0.19,0.26,0.048,0.026,0.025|
0.072,0.13,0.18,0.039,0.22,0.18,0.039,0.14|
0.017,0.13,0.18,0.092,0.065,0.029,0.24,0.24|
0.22,0.1,0.19,0.14,0.19,0.1,0.037,0.019|
0.24,0.045,0.33,0.28,0.059,0.032,0.01,0.0044|
0.13,0.16,0.12,0.2,0.057,0.15,0.11,0.073|
0.16,0.2,0.098,0.013,0.16,0.16,0.096,0.11|
0.059,0.19,0.17,0.23,0.099,0.1,0.07,0.078|
];
transition_y3=[
0.12,0.06,0.16,0.18,0.029,0.12,0.14,0.21|
0.12,0.081,0.14,0.14,0.15,0.13,0.11,0.12|
0.034,0.17,0.06,0.15,0.36,0.11,0.029,0.089|
0.046,0.22,0.07,0.13,0.17,0.0073,0.15,0.21|
0.029,0.17,0.19,0.13,0.14,0.16,0.0026,0.16|
0.13,0.19,0.026,0.22,0.1,0.22,0.097,0.011|
0.16,0.16,0.16,0.15,0.14,0.03,0.05,0.15|
0.13,0.041,0.054,0.033,0.26,0.15,0.12,0.21|
];
transition_y4=[
0.0076,0.17,0.18,0.048,0.16,0.098,0.18,0.16|
0.049,0.058,0.23,0.065,0.17,0.17,0.11,0.14|
0.029,0.14,0.19,0.051,0.11,0.11,0.18,0.2|
0.007,0.24,0.18,0.18,0.22,0.14,0.009,0.014|
0.14,0.19,0.18,0.0045,0.15,0.1,0.05,0.19|
0.098,0.16,0.13,0.17,0.08,0.16,0.038,0.16|
0.16,0.17,0.17,0.082,0.097,0.18,0.11,0.024|
0.037,0.18,0.085,0.18,0.12,0.11,0.084,0.2|
];
transition_y5=[
0.19,0.13,0.12,0.0051,0.067,0.15,0.22,0.12|
0.12,0.053,0.3,0.077,0.17,0.0093,0.051,0.22|
0.12,0.023,0.19,0.072,0.16,0.17,0.065,0.19|
0.23,0.021,0.24,0.044,0.067,0.1,0.1,0.2|
0.17,0.19,0.038,0.0059,0.095,0.16,0.17,0.17|
0.17,0.11,0.18,0.17,0.095,0.11,0.063,0.11|
0.22,0.091,0.25,0.027,0.15,0.17,0.07,0.023|
0.1,0.03,0.069,0.18,0.16,0.17,0.14,0.15|
];
transition_y6=[
0.071,0.087,0.16,0.061,0.18,0.19,0.21,0.041|
0.22,0.18,0.006,0.18,0.18,0.071,0.11,0.062|
0.076,0.11,0.25,0.094,0.1,0.2,0.0062,0.16|
0.046,0.042,0.22,0.011,0.11,0.15,0.23,0.19|
0.072,0.17,0.12,0.14,0.039,0.15,0.13,0.19|
0.22,0.018,0.029,0.17,0.067,0.19,0.1,0.2|
0.19,0.21,0.12,0.027,0.16,0.12,0.074,0.1|
0.077,0.33,0.29,0.17,0.058,0.014,0.049,0.012|
];
transition_y7=[
0.15,0.08,0.0041,0.21,0.11,0.2,0.1,0.15|
0.15,0.17,0.041,0.054,0.18,0.14,0.13,0.13|
0.14,0.099,0.0097,0.27,0.026,0.041,0.26,0.15|
0.2,0.016,0.095,0.15,0.069,0.13,0.19,0.13|
0.073,0.025,0.086,0.11,0.26,0.21,0.16,0.074|
0.073,0.22,0.14,0.019,0.16,0.047,0.2,0.15|
0.15,0.17,0.091,0.088,0.07,0.15,0.19,0.08|
0.093,0.12,0.22,0.012,0.05,0.19,0.22,0.09|
];
transition_y8=[
0.059,0.2,0.013,0.27,0.045,0.26,0.0041,0.15|
0.087,0.22,0.026,0.13,0.18,0.15,0.058,0.15|
0.0061,0.14,0.16,0.12,0.11,0.15,0.16,0.15|
0.13,0.14,0.087,0.18,0.018,0.12,0.16,0.16|
0.24,0.093,0.046,0.15,0.097,0.15,0.14,0.084|
0.1,0.03,0.3,0.23,0.15,0.021,0.13,0.043|
0.17,0.15,0.033,0.19,0.043,0.13,0.08,0.2|
0.09,0.099,0.18,0.097,0.044,0.11,0.16,0.22|
];
